c Sudoku solution
p cnf 729 0
112 0
141 0
176 0
183 0
234 0
325 0
353 0
366 0
437 0
448 0
454 0
528 0
549 0
597 0
611 0
684 0
514 0
765 0
838 0
139 0
127 0
318 0
331 0
869 0
259 0
877 0
893 0
935 0
816 0
885 0
415 0
213 0
226 0
958 0
155 0
645 0
575 0
295 0
971 0
281 0
387 0
491 0
486 0
582 0
561 0
556 0
533 0
636 0
732 0
992 0
989 0
796 0
774 0
788 0
946 0
917 0
719 0
743 0
964 0
842 0
851 0
757 0
721 0
824 0
923 0
247 0
344 0
262 0
168 0
194 0
278 0
652 0
463 0
667 0
422 0
629 0
479 0
673 0
698 0
372 0
399 0
